p cnf 382 1543
c p weight 10 1 0
c p weight -10 1 0
c p weight 11 0 0
c p weight -11 1 0
c p weight 12 -1 0
c p weight -12 1 0
c p weight 14 6.12323399573676603586882014729198302312846062338790031898128063403419218957424163818359375E-17 0
c p weight -14 1 0
c p weight 15 1 0
c p weight -15 1 0
c p weight 16 -1 0
c p weight -16 1 0
c p weight 18 -0.1335612396259832357348074083347455598413944244384765625 0
c p weight -18 1 0
c p weight 19 0.99104056186897349078890329110436141490936279296875 0
c p weight -19 1 0
c p weight 20 -1 0
c p weight -20 1 0
c p weight 22 6.12323399573676603586882014729198302312846062338790031898128063403419218957424163818359375E-17 0
c p weight -22 1 0
c p weight 23 1 0
c p weight -23 1 0
c p weight 24 -1 0
c p weight -24 1 0
c p weight 26 -1 0
c p weight -26 1 0
c p weight 27 3.673940397442059375002259206809000622711899723162043418511757408850826323032379150390625E-16 0
c p weight -27 1 0
c p weight 28 -1 0
c p weight -28 1 0
c p weight 30 1 0
c p weight -30 1 0
c p weight 31 0 0
c p weight -31 1 0
c p weight 32 -1 0
c p weight -32 1 0
c p weight 34 6.12323399573676603586882014729198302312846062338790031898128063403419218957424163818359375E-17 0
c p weight -34 1 0
c p weight 35 1 0
c p weight -35 1 0
c p weight 36 -1 0
c p weight -36 1 0
c p weight 38 -0.991511476394992374849834959604777395725250244140625 0
c p weight -38 1 0
c p weight 39 -0.130019199263118168108377403768827207386493682861328125 0
c p weight -39 1 0
c p weight 40 -1 0
c p weight -40 1 0
c p weight 42 6.12323399573676603586882014729198302312846062338790031898128063403419218957424163818359375E-17 0
c p weight -42 1 0
c p weight 43 1 0
c p weight -43 1 0
c p weight 44 -1 0
c p weight -44 1 0
c p weight 46 -1 0
c p weight -46 1 0
c p weight 47 3.673940397442059375002259206809000622711899723162043418511757408850826323032379150390625E-16 0
c p weight -47 1 0
c p weight 48 -1 0
c p weight -48 1 0
c p weight 51 -1 0
c p weight -51 1 0
c p weight 53 1 0
c p weight -53 1 0
c p weight 54 0 0
c p weight -54 1 0
c p weight 55 -1 0
c p weight -55 1 0
c p weight 57 6.12323399573676603586882014729198302312846062338790031898128063403419218957424163818359375E-17 0
c p weight -57 1 0
c p weight 58 1 0
c p weight -58 1 0
c p weight 59 -1 0
c p weight -59 1 0
c p weight 61 0.6676589223122142424671210392261855304241180419921875 0
c p weight -61 1 0
c p weight 62 0.74446730180505082952180373467854224145412445068359375 0
c p weight -62 1 0
c p weight 63 -1 0
c p weight -63 1 0
c p weight 65 6.12323399573676603586882014729198302312846062338790031898128063403419218957424163818359375E-17 0
c p weight -65 1 0
c p weight 66 1 0
c p weight -66 1 0
c p weight 67 -1 0
c p weight -67 1 0
c p weight 69 -1 0
c p weight -69 1 0
c p weight 70 3.673940397442059375002259206809000622711899723162043418511757408850826323032379150390625E-16 0
c p weight -70 1 0
c p weight 71 -1 0
c p weight -71 1 0
c p weight 74 -1 0
c p weight -74 1 0
c p weight 77 -1 0
c p weight -77 1 0
c p weight 79 1 0
c p weight -79 1 0
c p weight 80 0 0
c p weight -80 1 0
c p weight 81 -1 0
c p weight -81 1 0
c p weight 83 6.12323399573676603586882014729198302312846062338790031898128063403419218957424163818359375E-17 0
c p weight -83 1 0
c p weight 84 1 0
c p weight -84 1 0
c p weight 85 -1 0
c p weight -85 1 0
c p weight 87 0.00751535691195858411572938706513014039956033229827880859375 0
c p weight -87 1 0
c p weight 88 0.999971759306474528017361080856062471866607666015625 0
c p weight -88 1 0
c p weight 89 -1 0
c p weight -89 1 0
c p weight 91 6.12323399573676603586882014729198302312846062338790031898128063403419218957424163818359375E-17 0
c p weight -91 1 0
c p weight 92 1 0
c p weight -92 1 0
c p weight 93 -1 0
c p weight -93 1 0
c p weight 95 -1 0
c p weight -95 1 0
c p weight 96 3.673940397442059375002259206809000622711899723162043418511757408850826323032379150390625E-16 0
c p weight -96 1 0
c p weight 97 -1 0
c p weight -97 1 0
c p weight 100 -1 0
c p weight -100 1 0
c p weight 102 1 0
c p weight -102 1 0
c p weight 103 0 0
c p weight -103 1 0
c p weight 104 -1 0
c p weight -104 1 0
c p weight 106 6.12323399573676603586882014729198302312846062338790031898128063403419218957424163818359375E-17 0
c p weight -106 1 0
c p weight 107 1 0
c p weight -107 1 0
c p weight 108 -1 0
c p weight -108 1 0
c p weight 110 0.99995600138413631707834383632871322333812713623046875 0
c p weight -110 1 0
c p weight 111 -0.00938058078421928620560521494553540833294391632080078125 0
c p weight -111 1 0
c p weight 112 -1 0
c p weight -112 1 0
c p weight 114 6.12323399573676603586882014729198302312846062338790031898128063403419218957424163818359375E-17 0
c p weight -114 1 0
c p weight 115 1 0
c p weight -115 1 0
c p weight 116 -1 0
c p weight -116 1 0
c p weight 118 -1 0
c p weight -118 1 0
c p weight 119 3.673940397442059375002259206809000622711899723162043418511757408850826323032379150390625E-16 0
c p weight -119 1 0
c p weight 120 -1 0
c p weight -120 1 0
c p weight 123 -1 0
c p weight -123 1 0
c p weight 125 1 0
c p weight -125 1 0
c p weight 126 0 0
c p weight -126 1 0
c p weight 127 -1 0
c p weight -127 1 0
c p weight 129 6.12323399573676603586882014729198302312846062338790031898128063403419218957424163818359375E-17 0
c p weight -129 1 0
c p weight 130 1 0
c p weight -130 1 0
c p weight 131 -1 0
c p weight -131 1 0
c p weight 133 -0.1576963200385754493293433142753201536834239959716796875 0
c p weight -133 1 0
c p weight 134 -0.98748765594628629127527119635487906634807586669921875 0
c p weight -134 1 0
c p weight 135 -1 0
c p weight -135 1 0
c p weight 137 6.12323399573676603586882014729198302312846062338790031898128063403419218957424163818359375E-17 0
c p weight -137 1 0
c p weight 138 1 0
c p weight -138 1 0
c p weight 139 -1 0
c p weight -139 1 0
c p weight 141 -1 0
c p weight -141 1 0
c p weight 142 3.673940397442059375002259206809000622711899723162043418511757408850826323032379150390625E-16 0
c p weight -142 1 0
c p weight 143 -1 0
c p weight -143 1 0
c p weight 146 -1 0
c p weight -146 1 0
c p weight 149 -1 0
c p weight -149 1 0
c p weight 151 1 0
c p weight -151 1 0
c p weight 152 0 0
c p weight -152 1 0
c p weight 153 -1 0
c p weight -153 1 0
c p weight 155 6.12323399573676603586882014729198302312846062338790031898128063403419218957424163818359375E-17 0
c p weight -155 1 0
c p weight 156 1 0
c p weight -156 1 0
c p weight 157 -1 0
c p weight -157 1 0
c p weight 159 -0.3205694895363857543912899927818216383457183837890625 0
c p weight -159 1 0
c p weight 160 -0.94722500092553563177943942719139158725738525390625 0
c p weight -160 1 0
c p weight 161 -1 0
c p weight -161 1 0
c p weight 163 6.12323399573676603586882014729198302312846062338790031898128063403419218957424163818359375E-17 0
c p weight -163 1 0
c p weight 164 1 0
c p weight -164 1 0
c p weight 165 -1 0
c p weight -165 1 0
c p weight 167 -1 0
c p weight -167 1 0
c p weight 168 3.673940397442059375002259206809000622711899723162043418511757408850826323032379150390625E-16 0
c p weight -168 1 0
c p weight 169 -1 0
c p weight -169 1 0
c p weight 172 -1 0
c p weight -172 1 0
c p weight 175 -1 0
c p weight -175 1 0
c p weight 177 1 0
c p weight -177 1 0
c p weight 178 0 0
c p weight -178 1 0
c p weight 179 -1 0
c p weight -179 1 0
c p weight 181 6.12323399573676603586882014729198302312846062338790031898128063403419218957424163818359375E-17 0
c p weight -181 1 0
c p weight 182 1 0
c p weight -182 1 0
c p weight 183 -1 0
c p weight -183 1 0
c p weight 185 -0.06611814736078959475751304353252635337412357330322265625 0
c p weight -185 1 0
c p weight 186 0.99781180118776757748122463453910313546657562255859375 0
c p weight -186 1 0
c p weight 187 -1 0
c p weight -187 1 0
c p weight 189 6.12323399573676603586882014729198302312846062338790031898128063403419218957424163818359375E-17 0
c p weight -189 1 0
c p weight 190 1 0
c p weight -190 1 0
c p weight 191 -1 0
c p weight -191 1 0
c p weight 193 -1 0
c p weight -193 1 0
c p weight 194 3.673940397442059375002259206809000622711899723162043418511757408850826323032379150390625E-16 0
c p weight -194 1 0
c p weight 195 -1 0
c p weight -195 1 0
c p weight 198 -1 0
c p weight -198 1 0
c p weight 200 1 0
c p weight -200 1 0
c p weight 201 0 0
c p weight -201 1 0
c p weight 202 -1 0
c p weight -202 1 0
c p weight 204 6.12323399573676603586882014729198302312846062338790031898128063403419218957424163818359375E-17 0
c p weight -204 1 0
c p weight 205 1 0
c p weight -205 1 0
c p weight 206 -1 0
c p weight -206 1 0
c p weight 208 -0.486641861830141631006796387737267650663852691650390625 0
c p weight -208 1 0
c p weight 209 -0.873601567257347166872705201967619359493255615234375 0
c p weight -209 1 0
c p weight 210 -1 0
c p weight -210 1 0
c p weight 212 6.12323399573676603586882014729198302312846062338790031898128063403419218957424163818359375E-17 0
c p weight -212 1 0
c p weight 213 1 0
c p weight -213 1 0
c p weight 214 -1 0
c p weight -214 1 0
c p weight 216 -1 0
c p weight -216 1 0
c p weight 217 3.673940397442059375002259206809000622711899723162043418511757408850826323032379150390625E-16 0
c p weight -217 1 0
c p weight 218 -1 0
c p weight -218 1 0
c p weight 221 -1 0
c p weight -221 1 0
c p weight 223 1 0
c p weight -223 1 0
c p weight 224 0 0
c p weight -224 1 0
c p weight 225 -1 0
c p weight -225 1 0
c p weight 227 6.12323399573676603586882014729198302312846062338790031898128063403419218957424163818359375E-17 0
c p weight -227 1 0
c p weight 228 1 0
c p weight -228 1 0
c p weight 229 -1 0
c p weight -229 1 0
c p weight 231 -0.849871234472090453238024565507657825946807861328125 0
c p weight -231 1 0
c p weight 232 -0.52699040296468868671553309468436054885387420654296875 0
c p weight -232 1 0
c p weight 233 -1 0
c p weight -233 1 0
c p weight 235 6.12323399573676603586882014729198302312846062338790031898128063403419218957424163818359375E-17 0
c p weight -235 1 0
c p weight 236 1 0
c p weight -236 1 0
c p weight 237 -1 0
c p weight -237 1 0
c p weight 239 -1 0
c p weight -239 1 0
c p weight 240 3.673940397442059375002259206809000622711899723162043418511757408850826323032379150390625E-16 0
c p weight -240 1 0
c p weight 241 -1 0
c p weight -241 1 0
c p weight 244 -1 0
c p weight -244 1 0
c p weight 247 -1 0
c p weight -247 1 0
c p weight 249 1 0
c p weight -249 1 0
c p weight 250 0 0
c p weight -250 1 0
c p weight 251 -1 0
c p weight -251 1 0
c p weight 253 6.12323399573676603586882014729198302312846062338790031898128063403419218957424163818359375E-17 0
c p weight -253 1 0
c p weight 254 1 0
c p weight -254 1 0
c p weight 255 -1 0
c p weight -255 1 0
c p weight 257 0.39507201275466863332752609494491480290889739990234375 0
c p weight -257 1 0
c p weight 258 0.918650153615605091772522428072988986968994140625 0
c p weight -258 1 0
c p weight 259 -1 0
c p weight -259 1 0
c p weight 261 6.12323399573676603586882014729198302312846062338790031898128063403419218957424163818359375E-17 0
c p weight -261 1 0
c p weight 262 1 0
c p weight -262 1 0
c p weight 263 -1 0
c p weight -263 1 0
c p weight 265 -1 0
c p weight -265 1 0
c p weight 266 3.673940397442059375002259206809000622711899723162043418511757408850826323032379150390625E-16 0
c p weight -266 1 0
c p weight 267 -1 0
c p weight -267 1 0
c p weight 270 -1 0
c p weight -270 1 0
c p weight 273 -1 0
c p weight -273 1 0
c p weight 275 1 0
c p weight -275 1 0
c p weight 276 0 0
c p weight -276 1 0
c p weight 277 -1 0
c p weight -277 1 0
c p weight 279 6.12323399573676603586882014729198302312846062338790031898128063403419218957424163818359375E-17 0
c p weight -279 1 0
c p weight 280 1 0
c p weight -280 1 0
c p weight 281 -1 0
c p weight -281 1 0
c p weight 283 -0.957428415249673481213221748475916683673858642578125 0
c p weight -283 1 0
c p weight 284 0.288670798094470992811721998805296607315540313720703125 0
c p weight -284 1 0
c p weight 285 -1 0
c p weight -285 1 0
c p weight 287 6.12323399573676603586882014729198302312846062338790031898128063403419218957424163818359375E-17 0
c p weight -287 1 0
c p weight 288 1 0
c p weight -288 1 0
c p weight 289 -1 0
c p weight -289 1 0
c p weight 291 -1 0
c p weight -291 1 0
c p weight 292 3.673940397442059375002259206809000622711899723162043418511757408850826323032379150390625E-16 0
c p weight -292 1 0
c p weight 293 -1 0
c p weight -293 1 0
c p weight 296 -1 0
c p weight -296 1 0
c p weight 298 1 0
c p weight -298 1 0
c p weight 299 0 0
c p weight -299 1 0
c p weight 300 -1 0
c p weight -300 1 0
c p weight 302 6.12323399573676603586882014729198302312846062338790031898128063403419218957424163818359375E-17 0
c p weight -302 1 0
c p weight 303 1 0
c p weight -303 1 0
c p weight 304 -1 0
c p weight -304 1 0
c p weight 306 -0.9996923050643833352779665801790542900562286376953125 0
c p weight -306 1 0
c p weight 307 -0.0248051445280987915842363378260415629483759403228759765625 0
c p weight -307 1 0
c p weight 308 -1 0
c p weight -308 1 0
c p weight 310 6.12323399573676603586882014729198302312846062338790031898128063403419218957424163818359375E-17 0
c p weight -310 1 0
c p weight 311 1 0
c p weight -311 1 0
c p weight 312 -1 0
c p weight -312 1 0
c p weight 314 -1 0
c p weight -314 1 0
c p weight 315 3.673940397442059375002259206809000622711899723162043418511757408850826323032379150390625E-16 0
c p weight -315 1 0
c p weight 316 -1 0
c p weight -316 1 0
c p weight 319 -1 0
c p weight -319 1 0
c p weight 321 1 0
c p weight -321 1 0
c p weight 322 0 0
c p weight -322 1 0
c p weight 323 -1 0
c p weight -323 1 0
c p weight 325 6.12323399573676603586882014729198302312846062338790031898128063403419218957424163818359375E-17 0
c p weight -325 1 0
c p weight 326 1 0
c p weight -326 1 0
c p weight 327 -1 0
c p weight -327 1 0
c p weight 329 0.99706717591611571105403299952740781009197235107421875 0
c p weight -329 1 0
c p weight 330 0.0765313446285997012186186339022242464125156402587890625 0
c p weight -330 1 0
c p weight 331 -1 0
c p weight -331 1 0
c p weight 333 6.12323399573676603586882014729198302312846062338790031898128063403419218957424163818359375E-17 0
c p weight -333 1 0
c p weight 334 1 0
c p weight -334 1 0
c p weight 335 -1 0
c p weight -335 1 0
c p weight 337 -1 0
c p weight -337 1 0
c p weight 338 3.673940397442059375002259206809000622711899723162043418511757408850826323032379150390625E-16 0
c p weight -338 1 0
c p weight 339 -1 0
c p weight -339 1 0
c p weight 342 -1 0
c p weight -342 1 0
c p weight 344 1 0
c p weight -344 1 0
c p weight 345 0 0
c p weight -345 1 0
c p weight 346 -1 0
c p weight -346 1 0
c p weight 348 6.12323399573676603586882014729198302312846062338790031898128063403419218957424163818359375E-17 0
c p weight -348 1 0
c p weight 349 1 0
c p weight -349 1 0
c p weight 350 -1 0
c p weight -350 1 0
c p weight 352 -0.383385492828330232129019350395537912845611572265625 0
c p weight -352 1 0
c p weight 353 0.92358841693082005530612832444603554904460906982421875 0
c p weight -353 1 0
c p weight 354 -1 0
c p weight -354 1 0
c p weight 356 6.12323399573676603586882014729198302312846062338790031898128063403419218957424163818359375E-17 0
c p weight -356 1 0
c p weight 357 1 0
c p weight -357 1 0
c p weight 358 -1 0
c p weight -358 1 0
c p weight 360 -1 0
c p weight -360 1 0
c p weight 361 3.673940397442059375002259206809000622711899723162043418511757408850826323032379150390625E-16 0
c p weight -361 1 0
c p weight 362 -1 0
c p weight -362 1 0
c p weight 364 1 0
c p weight -364 1 0
c p weight 365 0 0
c p weight -365 1 0
c p weight 366 -1 0
c p weight -366 1 0
c p weight 368 6.12323399573676603586882014729198302312846062338790031898128063403419218957424163818359375E-17 0
c p weight -368 1 0
c p weight 369 1 0
c p weight -369 1 0
c p weight 370 -1 0
c p weight -370 1 0
c p weight 372 0.76029958703417033216709342013928107917308807373046875 0
c p weight -372 1 0
c p weight 373 0.649572580975882996057180207571946084499359130859375 0
c p weight -373 1 0
c p weight 374 -1 0
c p weight -374 1 0
c p weight 376 6.12323399573676603586882014729198302312846062338790031898128063403419218957424163818359375E-17 0
c p weight -376 1 0
c p weight 377 1 0
c p weight -377 1 0
c p weight 378 -1 0
c p weight -378 1 0
c p weight 380 -1 0
c p weight -380 1 0
c p weight 381 3.673940397442059375002259206809000622711899723162043418511757408850826323032379150390625E-16 0
c p weight -381 1 0
c p weight 382 -1 0
c p weight -382 1 0
-7 0
-5 0
-3 0
-1 0
9 1 -2 0
-9 1 2 0
-10 1 0
9 -10 -2 0
-9 -10 2 0
9 10 -1 2 0
-9 10 -1 -2 0
-11 1 0
9 -11 2 0
-9 -11 -2 0
9 11 -1 -2 0
-9 11 -1 2 0
-12 1 0
-12 2 0
-12 -9 0
12 9 -1 -2 0
13 -1 9 0
-13 1 9 0
-14 9 0
13 -14 -1 0
-13 -14 1 0
13 14 1 -9 0
-13 14 -1 -9 0
-15 9 0
13 -15 1 0
-13 -15 -1 0
13 15 -1 -9 0
-13 15 1 -9 0
-16 13 0
-16 9 0
-16 -1 0
16 -13 1 -9 0
17 13 -9 0
-17 13 9 0
-18 13 0
17 -18 -9 0
-17 -18 9 0
17 18 -13 9 0
-17 18 -13 -9 0
-19 13 0
17 -19 9 0
-17 -19 -9 0
17 19 -13 -9 0
-17 19 -13 9 0
-20 13 0
-20 9 0
-20 -17 0
20 17 -13 -9 0
21 -13 17 0
-21 13 17 0
-22 17 0
21 -22 -13 0
-21 -22 13 0
21 22 13 -17 0
-21 22 -13 -17 0
-23 17 0
21 -23 13 0
-21 -23 -13 0
21 23 -13 -17 0
-21 23 13 -17 0
-24 21 0
-24 17 0
-24 -13 0
24 -21 13 -17 0
25 21 -17 0
-25 21 17 0
-26 21 0
25 -26 -17 0
-25 -26 17 0
25 26 -21 17 0
-25 26 -21 -17 0
-27 21 0
25 -27 17 0
-25 -27 -17 0
25 27 -21 -17 0
-25 27 -21 17 0
-28 21 0
-28 17 0
-28 -25 0
28 25 -21 -17 0
29 3 -4 0
-29 3 4 0
-30 3 0
29 -30 -4 0
-29 -30 4 0
29 30 -3 4 0
-29 30 -3 -4 0
-31 3 0
29 -31 4 0
-29 -31 -4 0
29 31 -3 -4 0
-29 31 -3 4 0
-32 3 0
-32 4 0
-32 -29 0
32 29 -3 -4 0
33 -3 29 0
-33 3 29 0
-34 29 0
33 -34 -3 0
-33 -34 3 0
33 34 3 -29 0
-33 34 -3 -29 0
-35 29 0
33 -35 3 0
-33 -35 -3 0
33 35 -3 -29 0
-33 35 3 -29 0
-36 33 0
-36 29 0
-36 -3 0
36 -33 3 -29 0
37 33 -29 0
-37 33 29 0
-38 33 0
37 -38 -29 0
-37 -38 29 0
37 38 -33 29 0
-37 38 -33 -29 0
-39 33 0
37 -39 29 0
-37 -39 -29 0
37 39 -33 -29 0
-37 39 -33 29 0
-40 33 0
-40 29 0
-40 -37 0
40 37 -33 -29 0
41 -33 37 0
-41 33 37 0
-42 37 0
41 -42 -33 0
-41 -42 33 0
41 42 33 -37 0
-41 42 -33 -37 0
-43 37 0
41 -43 33 0
-41 -43 -33 0
41 43 -33 -37 0
-41 43 33 -37 0
-44 41 0
-44 37 0
-44 -33 0
44 -41 33 -37 0
45 41 -37 0
-45 41 37 0
-46 41 0
45 -46 -37 0
-45 -46 37 0
45 46 -41 37 0
-45 46 -41 -37 0
-47 41 0
45 -47 37 0
-45 -47 -37 0
45 47 -41 -37 0
-45 47 -41 37 0
-48 41 0
-48 37 0
-48 -45 0
48 45 -41 -37 0
49 21 -41 0
49 -21 41 0
-49 21 41 0
-49 -21 -41 0
50 25 -45 0
50 -25 45 0
-50 25 45 0
-50 -25 -45 0
-51 21 0
-51 45 0
-51 41 -25 0
-51 -41 25 0
51 -21 41 25 -45 0
51 -21 -41 -25 -45 0
52 5 -6 0
-52 5 6 0
-53 5 0
52 -53 -6 0
-52 -53 6 0
52 53 -5 6 0
-52 53 -5 -6 0
-54 5 0
52 -54 6 0
-52 -54 -6 0
52 54 -5 -6 0
-52 54 -5 6 0
-55 5 0
-55 6 0
-55 -52 0
55 52 -5 -6 0
56 -5 52 0
-56 5 52 0
-57 52 0
56 -57 -5 0
-56 -57 5 0
56 57 5 -52 0
-56 57 -5 -52 0
-58 52 0
56 -58 5 0
-56 -58 -5 0
56 58 -5 -52 0
-56 58 5 -52 0
-59 56 0
-59 52 0
-59 -5 0
59 -56 5 -52 0
60 56 -52 0
-60 56 52 0
-61 56 0
60 -61 -52 0
-60 -61 52 0
60 61 -56 52 0
-60 61 -56 -52 0
-62 56 0
60 -62 52 0
-60 -62 -52 0
60 62 -56 -52 0
-60 62 -56 52 0
-63 56 0
-63 52 0
-63 -60 0
63 60 -56 -52 0
64 -56 60 0
-64 56 60 0
-65 60 0
64 -65 -56 0
-64 -65 56 0
64 65 56 -60 0
-64 65 -56 -60 0
-66 60 0
64 -66 56 0
-64 -66 -56 0
64 66 -56 -60 0
-64 66 56 -60 0
-67 64 0
-67 60 0
-67 -56 0
67 -64 56 -60 0
68 64 -60 0
-68 64 60 0
-69 64 0
68 -69 -60 0
-68 -69 60 0
68 69 -64 60 0
-68 69 -64 -60 0
-70 64 0
68 -70 60 0
-68 -70 -60 0
68 70 -64 -60 0
-68 70 -64 60 0
-71 64 0
-71 60 0
-71 -68 0
71 68 -64 -60 0
72 21 -64 0
72 -21 64 0
-72 21 64 0
-72 -21 -64 0
73 50 -68 0
73 -50 68 0
-73 50 68 0
-73 -50 -68 0
-74 21 0
-74 68 0
-74 64 -50 0
-74 -64 50 0
74 -21 64 50 -68 0
74 -21 -64 -50 -68 0
75 49 -72 0
75 -49 72 0
-75 49 72 0
-75 -49 -72 0
76 45 -68 0
76 -45 68 0
-76 45 68 0
-76 -45 -68 0
-77 49 0
-77 68 0
-77 72 -45 0
-77 -72 45 0
77 -49 72 45 -68 0
77 -49 -72 -45 -68 0
78 7 -8 0
-78 7 8 0
-79 7 0
78 -79 -8 0
-78 -79 8 0
78 79 -7 8 0
-78 79 -7 -8 0
-80 7 0
78 -80 8 0
-78 -80 -8 0
78 80 -7 -8 0
-78 80 -7 8 0
-81 7 0
-81 8 0
-81 -78 0
81 78 -7 -8 0
82 -7 78 0
-82 7 78 0
-83 78 0
82 -83 -7 0
-82 -83 7 0
82 83 7 -78 0
-82 83 -7 -78 0
-84 78 0
82 -84 7 0
-82 -84 -7 0
82 84 -7 -78 0
-82 84 7 -78 0
-85 82 0
-85 78 0
-85 -7 0
85 -82 7 -78 0
86 82 -78 0
-86 82 78 0
-87 82 0
86 -87 -78 0
-86 -87 78 0
86 87 -82 78 0
-86 87 -82 -78 0
-88 82 0
86 -88 78 0
-86 -88 -78 0
86 88 -82 -78 0
-86 88 -82 78 0
-89 82 0
-89 78 0
-89 -86 0
89 86 -82 -78 0
90 -82 86 0
-90 82 86 0
-91 86 0
90 -91 -82 0
-90 -91 82 0
90 91 82 -86 0
-90 91 -82 -86 0
-92 86 0
90 -92 82 0
-90 -92 -82 0
90 92 -82 -86 0
-90 92 82 -86 0
-93 90 0
-93 86 0
-93 -82 0
93 -90 82 -86 0
94 90 -86 0
-94 90 86 0
-95 90 0
94 -95 -86 0
-94 -95 86 0
94 95 -90 86 0
-94 95 -90 -86 0
-96 90 0
94 -96 86 0
-94 -96 -86 0
94 96 -90 -86 0
-94 96 -90 86 0
-97 90 0
-97 86 0
-97 -94 0
97 94 -90 -86 0
98 21 -90 0
98 -21 90 0
-98 21 90 0
-98 -21 -90 0
99 73 -94 0
99 -73 94 0
-99 73 94 0
-99 -73 -94 0
-100 21 0
-100 94 0
-100 90 -73 0
-100 -90 73 0
100 -21 90 73 -94 0
100 -21 -90 -73 -94 0
101 21 -99 0
-101 21 99 0
-102 21 0
101 -102 -99 0
-101 -102 99 0
101 102 -21 99 0
-101 102 -21 -99 0
-103 21 0
101 -103 99 0
-101 -103 -99 0
101 103 -21 -99 0
-101 103 -21 99 0
-104 21 0
-104 99 0
-104 -101 0
104 101 -21 -99 0
105 -21 101 0
-105 21 101 0
-106 101 0
105 -106 -21 0
-105 -106 21 0
105 106 21 -101 0
-105 106 -21 -101 0
-107 101 0
105 -107 21 0
-105 -107 -21 0
105 107 -21 -101 0
-105 107 21 -101 0
-108 105 0
-108 101 0
-108 -21 0
108 -105 21 -101 0
109 105 -101 0
-109 105 101 0
-110 105 0
109 -110 -101 0
-109 -110 101 0
109 110 -105 101 0
-109 110 -105 -101 0
-111 105 0
109 -111 101 0
-109 -111 -101 0
109 111 -105 -101 0
-109 111 -105 101 0
-112 105 0
-112 101 0
-112 -109 0
112 109 -105 -101 0
113 -105 109 0
-113 105 109 0
-114 109 0
113 -114 -105 0
-113 -114 105 0
113 114 105 -109 0
-113 114 -105 -109 0
-115 109 0
113 -115 105 0
-113 -115 -105 0
113 115 -105 -109 0
-113 115 105 -109 0
-116 113 0
-116 109 0
-116 -105 0
116 -113 105 -109 0
117 113 -109 0
-117 113 109 0
-118 113 0
117 -118 -109 0
-117 -118 109 0
117 118 -113 109 0
-117 118 -113 -109 0
-119 113 0
117 -119 109 0
-117 -119 -109 0
117 119 -113 -109 0
-117 119 -113 109 0
-120 113 0
-120 109 0
-120 -117 0
120 117 -113 -109 0
121 49 -98 0
121 -49 98 0
-121 49 98 0
-121 -49 -98 0
122 76 -94 0
122 -76 94 0
-122 76 94 0
-122 -76 -94 0
-123 49 0
-123 94 0
-123 98 -76 0
-123 -98 76 0
123 -49 98 76 -94 0
123 -49 -98 -76 -94 0
124 49 -122 0
-124 49 122 0
-125 49 0
124 -125 -122 0
-124 -125 122 0
124 125 -49 122 0
-124 125 -49 -122 0
-126 49 0
124 -126 122 0
-124 -126 -122 0
124 126 -49 -122 0
-124 126 -49 122 0
-127 49 0
-127 122 0
-127 -124 0
127 124 -49 -122 0
128 -49 124 0
-128 49 124 0
-129 124 0
128 -129 -49 0
-128 -129 49 0
128 129 49 -124 0
-128 129 -49 -124 0
-130 124 0
128 -130 49 0
-128 -130 -49 0
128 130 -49 -124 0
-128 130 49 -124 0
-131 128 0
-131 124 0
-131 -49 0
131 -128 49 -124 0
132 128 -124 0
-132 128 124 0
-133 128 0
132 -133 -124 0
-132 -133 124 0
132 133 -128 124 0
-132 133 -128 -124 0
-134 128 0
132 -134 124 0
-132 -134 -124 0
132 134 -128 -124 0
-132 134 -128 124 0
-135 128 0
-135 124 0
-135 -132 0
135 132 -128 -124 0
136 -128 132 0
-136 128 132 0
-137 132 0
136 -137 -128 0
-136 -137 128 0
136 137 128 -132 0
-136 137 -128 -132 0
-138 132 0
136 -138 128 0
-136 -138 -128 0
136 138 -128 -132 0
-136 138 128 -132 0
-139 136 0
-139 132 0
-139 -128 0
139 -136 128 -132 0
140 136 -132 0
-140 136 132 0
-141 136 0
140 -141 -132 0
-140 -141 132 0
140 141 -136 132 0
-140 141 -136 -132 0
-142 136 0
140 -142 132 0
-140 -142 -132 0
140 142 -136 -132 0
-140 142 -136 132 0
-143 136 0
-143 132 0
-143 -140 0
143 140 -136 -132 0
144 113 -136 0
144 -113 136 0
-144 113 136 0
-144 -113 -136 0
145 117 -140 0
145 -117 140 0
-145 117 140 0
-145 -117 -140 0
-146 113 0
-146 140 0
-146 136 -117 0
-146 -136 117 0
146 -113 136 117 -140 0
146 -113 -136 -117 -140 0
147 75 -121 0
147 -75 121 0
-147 75 121 0
-147 -75 -121 0
148 68 -94 0
148 -68 94 0
-148 68 94 0
-148 -68 -94 0
-149 75 0
-149 94 0
-149 121 -68 0
-149 -121 68 0
149 -75 121 68 -94 0
149 -75 -121 -68 -94 0
150 75 -148 0
-150 75 148 0
-151 75 0
150 -151 -148 0
-150 -151 148 0
150 151 -75 148 0
-150 151 -75 -148 0
-152 75 0
150 -152 148 0
-150 -152 -148 0
150 152 -75 -148 0
-150 152 -75 148 0
-153 75 0
-153 148 0
-153 -150 0
153 150 -75 -148 0
154 -75 150 0
-154 75 150 0
-155 150 0
154 -155 -75 0
-154 -155 75 0
154 155 75 -150 0
-154 155 -75 -150 0
-156 150 0
154 -156 75 0
-154 -156 -75 0
154 156 -75 -150 0
-154 156 75 -150 0
-157 154 0
-157 150 0
-157 -75 0
157 -154 75 -150 0
158 154 -150 0
-158 154 150 0
-159 154 0
158 -159 -150 0
-158 -159 150 0
158 159 -154 150 0
-158 159 -154 -150 0
-160 154 0
158 -160 150 0
-158 -160 -150 0
158 160 -154 -150 0
-158 160 -154 150 0
-161 154 0
-161 150 0
-161 -158 0
161 158 -154 -150 0
162 -154 158 0
-162 154 158 0
-163 158 0
162 -163 -154 0
-162 -163 154 0
162 163 154 -158 0
-162 163 -154 -158 0
-164 158 0
162 -164 154 0
-162 -164 -154 0
162 164 -154 -158 0
-162 164 154 -158 0
-165 162 0
-165 158 0
-165 -154 0
165 -162 154 -158 0
166 162 -158 0
-166 162 158 0
-167 162 0
166 -167 -158 0
-166 -167 158 0
166 167 -162 158 0
-166 167 -162 -158 0
-168 162 0
166 -168 158 0
-166 -168 -158 0
166 168 -162 -158 0
-166 168 -162 158 0
-169 162 0
-169 158 0
-169 -166 0
169 166 -162 -158 0
170 113 -162 0
170 -113 162 0
-170 113 162 0
-170 -113 -162 0
171 145 -166 0
171 -145 166 0
-171 145 166 0
-171 -145 -166 0
-172 113 0
-172 166 0
-172 162 -145 0
-172 -162 145 0
172 -113 162 145 -166 0
172 -113 -162 -145 -166 0
173 144 -170 0
173 -144 170 0
-173 144 170 0
-173 -144 -170 0
174 140 -166 0
174 -140 166 0
-174 140 166 0
-174 -140 -166 0
-175 144 0
-175 166 0
-175 170 -140 0
-175 -170 140 0
175 -144 170 140 -166 0
175 -144 -170 -140 -166 0
176 147 -94 0
-176 147 94 0
-177 147 0
176 -177 -94 0
-176 -177 94 0
176 177 -147 94 0
-176 177 -147 -94 0
-178 147 0
176 -178 94 0
-176 -178 -94 0
176 178 -147 -94 0
-176 178 -147 94 0
-179 147 0
-179 94 0
-179 -176 0
179 176 -147 -94 0
180 -147 176 0
-180 147 176 0
-181 176 0
180 -181 -147 0
-180 -181 147 0
180 181 147 -176 0
-180 181 -147 -176 0
-182 176 0
180 -182 147 0
-180 -182 -147 0
180 182 -147 -176 0
-180 182 147 -176 0
-183 180 0
-183 176 0
-183 -147 0
183 -180 147 -176 0
184 180 -176 0
-184 180 176 0
-185 180 0
184 -185 -176 0
-184 -185 176 0
184 185 -180 176 0
-184 185 -180 -176 0
-186 180 0
184 -186 176 0
-184 -186 -176 0
184 186 -180 -176 0
-184 186 -180 176 0
-187 180 0
-187 176 0
-187 -184 0
187 184 -180 -176 0
188 -180 184 0
-188 180 184 0
-189 184 0
188 -189 -180 0
-188 -189 180 0
188 189 180 -184 0
-188 189 -180 -184 0
-190 184 0
188 -190 180 0
-188 -190 -180 0
188 190 -180 -184 0
-188 190 180 -184 0
-191 188 0
-191 184 0
-191 -180 0
191 -188 180 -184 0
192 188 -184 0
-192 188 184 0
-193 188 0
192 -193 -184 0
-192 -193 184 0
192 193 -188 184 0
-192 193 -188 -184 0
-194 188 0
192 -194 184 0
-192 -194 -184 0
192 194 -188 -184 0
-192 194 -188 184 0
-195 188 0
-195 184 0
-195 -192 0
195 192 -188 -184 0
196 113 -188 0
196 -113 188 0
-196 113 188 0
-196 -113 -188 0
197 171 -192 0
197 -171 192 0
-197 171 192 0
-197 -171 -192 0
-198 113 0
-198 192 0
-198 188 -171 0
-198 -188 171 0
198 -113 188 171 -192 0
198 -113 -188 -171 -192 0
199 113 -197 0
-199 113 197 0
-200 113 0
199 -200 -197 0
-199 -200 197 0
199 200 -113 197 0
-199 200 -113 -197 0
-201 113 0
199 -201 197 0
-199 -201 -197 0
199 201 -113 -197 0
-199 201 -113 197 0
-202 113 0
-202 197 0
-202 -199 0
202 199 -113 -197 0
203 -113 199 0
-203 113 199 0
-204 199 0
203 -204 -113 0
-203 -204 113 0
203 204 113 -199 0
-203 204 -113 -199 0
-205 199 0
203 -205 113 0
-203 -205 -113 0
203 205 -113 -199 0
-203 205 113 -199 0
-206 203 0
-206 199 0
-206 -113 0
206 -203 113 -199 0
207 203 -199 0
-207 203 199 0
-208 203 0
207 -208 -199 0
-207 -208 199 0
207 208 -203 199 0
-207 208 -203 -199 0
-209 203 0
207 -209 199 0
-207 -209 -199 0
207 209 -203 -199 0
-207 209 -203 199 0
-210 203 0
-210 199 0
-210 -207 0
210 207 -203 -199 0
211 -203 207 0
-211 203 207 0
-212 207 0
211 -212 -203 0
-211 -212 203 0
211 212 203 -207 0
-211 212 -203 -207 0
-213 207 0
211 -213 203 0
-211 -213 -203 0
211 213 -203 -207 0
-211 213 203 -207 0
-214 211 0
-214 207 0
-214 -203 0
214 -211 203 -207 0
215 211 -207 0
-215 211 207 0
-216 211 0
215 -216 -207 0
-215 -216 207 0
215 216 -211 207 0
-215 216 -211 -207 0
-217 211 0
215 -217 207 0
-215 -217 -207 0
215 217 -211 -207 0
-215 217 -211 207 0
-218 211 0
-218 207 0
-218 -215 0
218 215 -211 -207 0
219 144 -196 0
219 -144 196 0
-219 144 196 0
-219 -144 -196 0
220 174 -192 0
220 -174 192 0
-220 174 192 0
-220 -174 -192 0
-221 144 0
-221 192 0
-221 196 -174 0
-221 -196 174 0
221 -144 196 174 -192 0
221 -144 -196 -174 -192 0
222 144 -220 0
-222 144 220 0
-223 144 0
222 -223 -220 0
-222 -223 220 0
222 223 -144 220 0
-222 223 -144 -220 0
-224 144 0
222 -224 220 0
-222 -224 -220 0
222 224 -144 -220 0
-222 224 -144 220 0
-225 144 0
-225 220 0
-225 -222 0
225 222 -144 -220 0
226 -144 222 0
-226 144 222 0
-227 222 0
226 -227 -144 0
-226 -227 144 0
226 227 144 -222 0
-226 227 -144 -222 0
-228 222 0
226 -228 144 0
-226 -228 -144 0
226 228 -144 -222 0
-226 228 144 -222 0
-229 226 0
-229 222 0
-229 -144 0
229 -226 144 -222 0
230 226 -222 0
-230 226 222 0
-231 226 0
230 -231 -222 0
-230 -231 222 0
230 231 -226 222 0
-230 231 -226 -222 0
-232 226 0
230 -232 222 0
-230 -232 -222 0
230 232 -226 -222 0
-230 232 -226 222 0
-233 226 0
-233 222 0
-233 -230 0
233 230 -226 -222 0
234 -226 230 0
-234 226 230 0
-235 230 0
234 -235 -226 0
-234 -235 226 0
234 235 226 -230 0
-234 235 -226 -230 0
-236 230 0
234 -236 226 0
-234 -236 -226 0
234 236 -226 -230 0
-234 236 226 -230 0
-237 234 0
-237 230 0
-237 -226 0
237 -234 226 -230 0
238 234 -230 0
-238 234 230 0
-239 234 0
238 -239 -230 0
-238 -239 230 0
238 239 -234 230 0
-238 239 -234 -230 0
-240 234 0
238 -240 230 0
-238 -240 -230 0
238 240 -234 -230 0
-238 240 -234 230 0
-241 234 0
-241 230 0
-241 -238 0
241 238 -234 -230 0
242 211 -234 0
242 -211 234 0
-242 211 234 0
-242 -211 -234 0
243 215 -238 0
243 -215 238 0
-243 215 238 0
-243 -215 -238 0
-244 211 0
-244 238 0
-244 234 -215 0
-244 -234 215 0
244 -211 234 215 -238 0
244 -211 -234 -215 -238 0
245 173 -219 0
245 -173 219 0
-245 173 219 0
-245 -173 -219 0
246 166 -192 0
246 -166 192 0
-246 166 192 0
-246 -166 -192 0
-247 173 0
-247 192 0
-247 219 -166 0
-247 -219 166 0
247 -173 219 166 -192 0
247 -173 -219 -166 -192 0
248 173 -246 0
-248 173 246 0
-249 173 0
248 -249 -246 0
-248 -249 246 0
248 249 -173 246 0
-248 249 -173 -246 0
-250 173 0
248 -250 246 0
-248 -250 -246 0
248 250 -173 -246 0
-248 250 -173 246 0
-251 173 0
-251 246 0
-251 -248 0
251 248 -173 -246 0
252 -173 248 0
-252 173 248 0
-253 248 0
252 -253 -173 0
-252 -253 173 0
252 253 173 -248 0
-252 253 -173 -248 0
-254 248 0
252 -254 173 0
-252 -254 -173 0
252 254 -173 -248 0
-252 254 173 -248 0
-255 252 0
-255 248 0
-255 -173 0
255 -252 173 -248 0
256 252 -248 0
-256 252 248 0
-257 252 0
256 -257 -248 0
-256 -257 248 0
256 257 -252 248 0
-256 257 -252 -248 0
-258 252 0
256 -258 248 0
-256 -258 -248 0
256 258 -252 -248 0
-256 258 -252 248 0
-259 252 0
-259 248 0
-259 -256 0
259 256 -252 -248 0
260 -252 256 0
-260 252 256 0
-261 256 0
260 -261 -252 0
-260 -261 252 0
260 261 252 -256 0
-260 261 -252 -256 0
-262 256 0
260 -262 252 0
-260 -262 -252 0
260 262 -252 -256 0
-260 262 252 -256 0
-263 260 0
-263 256 0
-263 -252 0
263 -260 252 -256 0
264 260 -256 0
-264 260 256 0
-265 260 0
264 -265 -256 0
-264 -265 256 0
264 265 -260 256 0
-264 265 -260 -256 0
-266 260 0
264 -266 256 0
-264 -266 -256 0
264 266 -260 -256 0
-264 266 -260 256 0
-267 260 0
-267 256 0
-267 -264 0
267 264 -260 -256 0
268 211 -260 0
268 -211 260 0
-268 211 260 0
-268 -211 -260 0
269 243 -264 0
269 -243 264 0
-269 243 264 0
-269 -243 -264 0
-270 211 0
-270 264 0
-270 260 -243 0
-270 -260 243 0
270 -211 260 243 -264 0
270 -211 -260 -243 -264 0
271 242 -268 0
271 -242 268 0
-271 242 268 0
-271 -242 -268 0
272 238 -264 0
272 -238 264 0
-272 238 264 0
-272 -238 -264 0
-273 242 0
-273 264 0
-273 268 -238 0
-273 -268 238 0
273 -242 268 238 -264 0
273 -242 -268 -238 -264 0
274 245 -192 0
-274 245 192 0
-275 245 0
274 -275 -192 0
-274 -275 192 0
274 275 -245 192 0
-274 275 -245 -192 0
-276 245 0
274 -276 192 0
-274 -276 -192 0
274 276 -245 -192 0
-274 276 -245 192 0
-277 245 0
-277 192 0
-277 -274 0
277 274 -245 -192 0
278 -245 274 0
-278 245 274 0
-279 274 0
278 -279 -245 0
-278 -279 245 0
278 279 245 -274 0
-278 279 -245 -274 0
-280 274 0
278 -280 245 0
-278 -280 -245 0
278 280 -245 -274 0
-278 280 245 -274 0
-281 278 0
-281 274 0
-281 -245 0
281 -278 245 -274 0
282 278 -274 0
-282 278 274 0
-283 278 0
282 -283 -274 0
-282 -283 274 0
282 283 -278 274 0
-282 283 -278 -274 0
-284 278 0
282 -284 274 0
-282 -284 -274 0
282 284 -278 -274 0
-282 284 -278 274 0
-285 278 0
-285 274 0
-285 -282 0
285 282 -278 -274 0
286 -278 282 0
-286 278 282 0
-287 282 0
286 -287 -278 0
-286 -287 278 0
286 287 278 -282 0
-286 287 -278 -282 0
-288 282 0
286 -288 278 0
-286 -288 -278 0
286 288 -278 -282 0
-286 288 278 -282 0
-289 286 0
-289 282 0
-289 -278 0
289 -286 278 -282 0
290 286 -282 0
-290 286 282 0
-291 286 0
290 -291 -282 0
-290 -291 282 0
290 291 -286 282 0
-290 291 -286 -282 0
-292 286 0
290 -292 282 0
-290 -292 -282 0
290 292 -286 -282 0
-290 292 -286 282 0
-293 286 0
-293 282 0
-293 -290 0
293 290 -286 -282 0
294 211 -286 0
294 -211 286 0
-294 211 286 0
-294 -211 -286 0
295 269 -290 0
295 -269 290 0
-295 269 290 0
-295 -269 -290 0
-296 211 0
-296 290 0
-296 286 -269 0
-296 -286 269 0
296 -211 286 269 -290 0
296 -211 -286 -269 -290 0
297 211 -295 0
-297 211 295 0
-298 211 0
297 -298 -295 0
-297 -298 295 0
297 298 -211 295 0
-297 298 -211 -295 0
-299 211 0
297 -299 295 0
-297 -299 -295 0
297 299 -211 -295 0
-297 299 -211 295 0
-300 211 0
-300 295 0
-300 -297 0
300 297 -211 -295 0
301 -211 297 0
-301 211 297 0
-302 297 0
301 -302 -211 0
-301 -302 211 0
301 302 211 -297 0
-301 302 -211 -297 0
-303 297 0
301 -303 211 0
-301 -303 -211 0
301 303 -211 -297 0
-301 303 211 -297 0
-304 301 0
-304 297 0
-304 -211 0
304 -301 211 -297 0
305 301 -297 0
-305 301 297 0
-306 301 0
305 -306 -297 0
-305 -306 297 0
305 306 -301 297 0
-305 306 -301 -297 0
-307 301 0
305 -307 297 0
-305 -307 -297 0
305 307 -301 -297 0
-305 307 -301 297 0
-308 301 0
-308 297 0
-308 -305 0
308 305 -301 -297 0
309 -301 305 0
-309 301 305 0
-310 305 0
309 -310 -301 0
-309 -310 301 0
309 310 301 -305 0
-309 310 -301 -305 0
-311 305 0
309 -311 301 0
-309 -311 -301 0
309 311 -301 -305 0
-309 311 301 -305 0
-312 309 0
-312 305 0
-312 -301 0
312 -309 301 -305 0
313 309 -305 0
-313 309 305 0
-314 309 0
313 -314 -305 0
-313 -314 305 0
313 314 -309 305 0
-313 314 -309 -305 0
-315 309 0
313 -315 305 0
-313 -315 -305 0
313 315 -309 -305 0
-313 315 -309 305 0
-316 309 0
-316 305 0
-316 -313 0
316 313 -309 -305 0
317 242 -294 0
317 -242 294 0
-317 242 294 0
-317 -242 -294 0
318 272 -290 0
318 -272 290 0
-318 272 290 0
-318 -272 -290 0
-319 242 0
-319 290 0
-319 294 -272 0
-319 -294 272 0
319 -242 294 272 -290 0
319 -242 -294 -272 -290 0
320 242 -318 0
-320 242 318 0
-321 242 0
320 -321 -318 0
-320 -321 318 0
320 321 -242 318 0
-320 321 -242 -318 0
-322 242 0
320 -322 318 0
-320 -322 -318 0
320 322 -242 -318 0
-320 322 -242 318 0
-323 242 0
-323 318 0
-323 -320 0
323 320 -242 -318 0
324 -242 320 0
-324 242 320 0
-325 320 0
324 -325 -242 0
-324 -325 242 0
324 325 242 -320 0
-324 325 -242 -320 0
-326 320 0
324 -326 242 0
-324 -326 -242 0
324 326 -242 -320 0
-324 326 242 -320 0
-327 324 0
-327 320 0
-327 -242 0
327 -324 242 -320 0
328 324 -320 0
-328 324 320 0
-329 324 0
328 -329 -320 0
-328 -329 320 0
328 329 -324 320 0
-328 329 -324 -320 0
-330 324 0
328 -330 320 0
-328 -330 -320 0
328 330 -324 -320 0
-328 330 -324 320 0
-331 324 0
-331 320 0
-331 -328 0
331 328 -324 -320 0
332 -324 328 0
-332 324 328 0
-333 328 0
332 -333 -324 0
-332 -333 324 0
332 333 324 -328 0
-332 333 -324 -328 0
-334 328 0
332 -334 324 0
-332 -334 -324 0
332 334 -324 -328 0
-332 334 324 -328 0
-335 332 0
-335 328 0
-335 -324 0
335 -332 324 -328 0
336 332 -328 0
-336 332 328 0
-337 332 0
336 -337 -328 0
-336 -337 328 0
336 337 -332 328 0
-336 337 -332 -328 0
-338 332 0
336 -338 328 0
-336 -338 -328 0
336 338 -332 -328 0
-336 338 -332 328 0
-339 332 0
-339 328 0
-339 -336 0
339 336 -332 -328 0
340 271 -317 0
340 -271 317 0
-340 271 317 0
-340 -271 -317 0
341 264 -290 0
341 -264 290 0
-341 264 290 0
-341 -264 -290 0
-342 271 0
-342 290 0
-342 317 -264 0
-342 -317 264 0
342 -271 317 264 -290 0
342 -271 -317 -264 -290 0
343 271 -341 0
-343 271 341 0
-344 271 0
343 -344 -341 0
-343 -344 341 0
343 344 -271 341 0
-343 344 -271 -341 0
-345 271 0
343 -345 341 0
-343 -345 -341 0
343 345 -271 -341 0
-343 345 -271 341 0
-346 271 0
-346 341 0
-346 -343 0
346 343 -271 -341 0
347 -271 343 0
-347 271 343 0
-348 343 0
347 -348 -271 0
-347 -348 271 0
347 348 271 -343 0
-347 348 -271 -343 0
-349 343 0
347 -349 271 0
-347 -349 -271 0
347 349 -271 -343 0
-347 349 271 -343 0
-350 347 0
-350 343 0
-350 -271 0
350 -347 271 -343 0
351 347 -343 0
-351 347 343 0
-352 347 0
351 -352 -343 0
-351 -352 343 0
351 352 -347 343 0
-351 352 -347 -343 0
-353 347 0
351 -353 343 0
-351 -353 -343 0
351 353 -347 -343 0
-351 353 -347 343 0
-354 347 0
-354 343 0
-354 -351 0
354 351 -347 -343 0
355 -347 351 0
-355 347 351 0
-356 351 0
355 -356 -347 0
-355 -356 347 0
355 356 347 -351 0
-355 356 -347 -351 0
-357 351 0
355 -357 347 0
-355 -357 -347 0
355 357 -347 -351 0
-355 357 347 -351 0
-358 355 0
-358 351 0
-358 -347 0
358 -355 347 -351 0
359 355 -351 0
-359 355 351 0
-360 355 0
359 -360 -351 0
-359 -360 351 0
359 360 -355 351 0
-359 360 -355 -351 0
-361 355 0
359 -361 351 0
-359 -361 -351 0
359 361 -355 -351 0
-359 361 -355 351 0
-362 355 0
-362 351 0
-362 -359 0
362 359 -355 -351 0
363 340 -290 0
-363 340 290 0
-364 340 0
363 -364 -290 0
-363 -364 290 0
363 364 -340 290 0
-363 364 -340 -290 0
-365 340 0
363 -365 290 0
-363 -365 -290 0
363 365 -340 -290 0
-363 365 -340 290 0
-366 340 0
-366 290 0
-366 -363 0
366 363 -340 -290 0
367 -340 363 0
-367 340 363 0
-368 363 0
367 -368 -340 0
-367 -368 340 0
367 368 340 -363 0
-367 368 -340 -363 0
-369 363 0
367 -369 340 0
-367 -369 -340 0
367 369 -340 -363 0
-367 369 340 -363 0
-370 367 0
-370 363 0
-370 -340 0
370 -367 340 -363 0
371 367 -363 0
-371 367 363 0
-372 367 0
371 -372 -363 0
-371 -372 363 0
371 372 -367 363 0
-371 372 -367 -363 0
-373 367 0
371 -373 363 0
-371 -373 -363 0
371 373 -367 -363 0
-371 373 -367 363 0
-374 367 0
-374 363 0
-374 -371 0
374 371 -367 -363 0
375 -367 371 0
-375 367 371 0
-376 371 0
375 -376 -367 0
-375 -376 367 0
375 376 367 -371 0
-375 376 -367 -371 0
-377 371 0
375 -377 367 0
-375 -377 -367 0
375 377 -367 -371 0
-375 377 367 -371 0
-378 375 0
-378 371 0
-378 -367 0
378 -375 367 -371 0
379 375 -371 0
-379 375 371 0
-380 375 0
379 -380 -371 0
-379 -380 371 0
379 380 -375 371 0
-379 380 -375 -371 0
-381 375 0
379 -381 371 0
-379 -381 -371 0
379 381 -375 -371 0
-379 381 -375 371 0
-382 375 0
-382 371 0
-382 -379 0
382 379 -375 -371 0
-309 0
-332 0
-336 0
-355 0
-359 0
-375 0
-379 0
